Instance name : DPDPTWHF_R_bar-n100-1_fixed_limited_heter_fleet
Authors : 
Date : 
Reference 
Solution
Route 1 : 31 40 12 21 81 62 41 71 91 16 66 90 8 58 
Route 2 : 20 28 49 70 78 10 60 99 6 56 37 87 
Route 3 : 23 1 73 51 18 25 68 75 
Route 4 : 5 55 13 63 35 14 64 43 85 32 82 7 57 93 
Route 5 : 26 27 76 17 2 67 52 3 22 72 77 46 96 53 
Route 6 : 30 80 39 33 15 65 83 89 9 59 34 36 84 86 4 54 
Route 7 : 29 48 98 47 79 11 97 38 61 24 74 88 
